s td 16 75 90
b 1 1 2 3 4 5 6 7 8 9 10 11 12 13 14 15 16 17 18 19 22 23 24 26 27 28 29 30 31 32 33 34 35 36 37 38 39 41 42 43 45 47 48 49 51 52 54 55 56 57 58 59 60 61 62 63 64 65 66 67 68 69 70 72 73 74 75 76 77 79 81 85 86 87 89 90
b 2 1 2 3 4 6 7 8 9 10 11 12 13 14 15 16 17 18 19 22 23 24 25 26 27 28 29 30 31 32 33 34 35 36 37 38 39 41 42 43 45 47 48 49 51 52 54 55 56 57 58 59 60 61 62 63 64 65 66 67 68 69 70 72 73 74 75 76 77 79 81 85 86 87 89 90
b 3 1 2 3 4 6 7 8 9 10 11 12 13 14 15 16 17 18 19 22 23 24 25 26 27 28 29 30 31 32 33 34 35 36 37 38 39 41 42 43 45 47 48 49 51 52 54 55 56 57 58 59 60 61 62 63 64 65 66 67 68 69 71 72 73 74 75 76 77 79 81 86 87 89 90
b 4 1 2 3 4 6 7 8 9 10 11 12 13 14 15 16 17 18 19 22 23 24 25 26 27 28 29 30 31 32 33 35 36 38 39 41 42 43 45 47 48 49 50 51 52 54 55 56 57 58 59 60 61 62 63 64 65 66 67 68 69 71 72 73 74 75 76 77 79 81 86 87 89 90
b 5 1 2 3 4 6 7 8 9 10 11 12 13 14 15 16 17 18 19 22 23 24 25 26 27 28 29 30 31 32 33 35 36 38 39 41 42 43 45 47 48 49 50 51 52 54 55 56 57 58 59 60 61 62 63 65 66 67 68 69 72 73 74 75 76 77 79 81 83 87 89 90
b 6 1 2 3 4 6 7 8 9 10 12 13 14 16 17 18 19 20 22 23 24 25 26 27 28 29 30 31 32 33 35 36 38 39 41 42 43 45 47 48 49 50 51 52 54 57 58 59 60 61 62 63 65 66 67 68 69 72 73 74 75 76 77 79 81 83 87 89
b 7 1 2 3 4 6 7 8 9 10 12 13 14 17 18 19 20 22 23 25 26 27 28 29 30 33 36 39 41 42 43 47 48 50 52 54 58 59 61 63 65 66 67 68 69 73 76 77 79 80 87 89
b 8 1 2 4 6 8 9 10 12 14 17 18 19 20 23 27 28 29 30 36 39 42 47 48 50 52 53 54 58 59 61 63 65 66 67 68 69 73 76 77 80 87 89
b 9 1 2 3 4 8 11 12 13 14 15 16 18 19 22 23 24 25 27 29 31 33 36 39 41 42 43 44 45 48 49 52 54 57 58 62 63 65 67 68 69 72 74 75 83 90
b 10 1 2 3 4 5 6 7 8 9 10 11 12 13 14 15 16 17 18 19 22 23 24 26 27 28 29 30 31 32 33 34 35 36 37 38 39 41 42 43 45 47 48 49 51 52 54 55 56 57 58 59 60 61 62 63 64 65 66 67 68 69 70 72 73 74 75 76 77 79 81 82 85 86 87 89
b 11 1 2 3 4 5 6 7 8 9 10 11 12 13 14 15 16 17 18 19 21 22 23 24 26 27 28 29 30 31 32 33 34 35 36 38 39 41 42 43 45 48 49 51 52 54 55 56 57 58 59 60 61 62 63 64 65 66 67 68 69 70 72 73 74 75 76 77 79 81 82 85 86 87 89
b 12 1 2 3 4 5 6 7 8 9 10 11 12 13 14 15 16 17 18 19 21 22 23 24 26 27 28 29 30 31 32 33 34 35 36 38 39 41 42 43 45 48 49 51 52 54 55 56 57 58 59 60 61 62 64 65 67 68 69 70 72 73 75 76 77 79 81 82 85 86 87 88 89
b 13 2 3 5 6 7 10 11 14 15 16 17 19 21 22 23 24 26 27 28 29 30 31 32 34 35 36 38 40 41 43 48 49 51 52 54 55 56 57 59 60 61 62 64 65 67 69 70 72 73 76 77 79 81 82 85 88 89
b 14 3 10 11 15 16 17 19 21 22 23 24 26 29 30 32 34 35 36 40 41 43 49 54 56 59 61 62 64 69 73 76 77 78 88 89
b 15 1 2 3 4 5 6 7 8 9 10 11 12 13 14 15 16 17 18 19 21 22 23 26 27 28 29 30 31 33 34 39 41 42 43 45 46 48 49 51 52 54 56 57 58 59 60 62 64 65 67 68 69 70 72 73 75 76 77 79 82 85 86 87 88
b 16 1 3 4 5 6 8 10 12 14 15 17 18 19 21 22 26 27 28 29 30 33 34 39 42 43 45 46 49 52 54 56 58 59 60 62 64 65 68 70 72 75 76 77 79 82 84 85 86 88
1 2
1 10
2 3
3 4
4 5
5 6
5 9
6 7
7 8
10 11
11 12
12 13
12 15
13 14
15 16
